c ---- [ banner ] ------------------------------------------------------------
c
c Kissat SAT Solver
c 
c Copyright (c) 2021-2024 Armin Biere University of Freiburg
c Copyright (c) 2019-2021 Armin Biere Johannes Kepler University Linz
c 
c Version 4.0.1 43f02cf3e992cb44653b35e5cb26f93281552ae0
c gcc (Ubuntu 13.2.0-23ubuntu4) 13.2.0 -W -Wall -O3 -DNDEBUG
c Thu Sep 12 12:27:46 CEST 2024 Linux abryzen9 6.8.0-41-generic x86_64
c
c ---- [ parsing ] -----------------------------------------------------------
c
c opened and reading DIMACS file:
c
c   /data/artifact/AMulet2.0_artifact/exp4/cnf_dc2_64/64_64_U_SP_AR_KS_GenMul_dc2.cnf
c
c parsed 'p cnf 28428 124910' header
c closing input after reading 2485267 bytes (2 MB)
c finished parsing after 0.02 seconds
c
c ---- [ options ] -----------------------------------------------------------
c
c --stable=0                       (different from default '1')
c
c ---- [ solving ] -----------------------------------------------------------
c
c  seconds switched rate     size/glue tier1  binary          remaining
c         MB reductions conflicts size  tier2    irredundant
c          level restarts redundant glue  trail          variables
c
c *  0.02 10 0 0 0  0 0   0   0 0.0 0 0 0 0 0% 9044 115864 28425 100%
c (  0.05 13 0 0 0  0 0   0   0 0.0 0 0 0 0 0% 9044 115864 28425 100%
c .  0.06 13 0 0 0  0 0   0   0 0.0 0 0 0 0 0% 9040 115864 28425 100%
c f  0.25 16 0 0 0  0 0   0   0 0.0 0 0 0 0 0% 9058 115828 28443 100%
c e  0.40 23 0 0 0  0 0   0   0 0.0 0 0 0 0 0% 8732 115972 20365 72%
c )  0.40 23 0 0 0  0 0   0   0 0.0 0 0 0 0 0% 8732 115972 20365 72%
c {  0.43 25 0 0 0  0 0   0   0 0.0 0 0 2 6 0% 8732 115972 20365 72%
c -  0.61 25 176 0 1 301 30 1000 837 1.9 12 6 4 12 20% 8743 115972 20365 72%
c -  0.74 25 139 0 2 434 24 2001 1590 2.0 12 6 4 14 23% 8754 115972 20365 72%
c u  0.85 25 131 0 2 529 24 2507 1813 2.0 12 6 4 13 23% 8761 115972 20365 72%
c v  0.87 25 131 0 2 529 24 2507 1784 2.0 12 6 4 13 23% 8761 115972 20365 72%
c w  0.88 25 131 0 2 529 24 2507 1783 2.0 12 6 4 13 23% 8761 115972 20365 72%
c f  0.94 25 131 0 2 529 24 2507 1783 2.0 12 6 4 13 23% 8762 115970 20366 72%
c u  1.02 25 131 0 2 529 24 2507 1599 2.0 12 6 4 13 23% 8763 115970 20366 72%
c v  1.05 25 131 0 2 529 24 2507 1533 2.0 12 6 4 13 23% 8764 115970 20366 72%
c w  1.06 25 131 0 2 529 24 2507 1532 2.0 12 6 4 13 23% 8764 115970 20366 72%
c =  1.11 25 131 0 2 529 24 2507 1532 2.0 12 6 4 13 23% 8874 115958 20311 71%
c d  1.12 25 131 0 2 529 24 2507 1532 2.0 12 6 4 13 23% 8764 115958 20311 71%
c t  1.13 25 131 0 2 529 24 2507 1532 2.0 12 6 4 13 23% 8762 115958 20311 71%
c f  1.15 25 131 0 2 529 24 2507 1532 2.0 12 6 4 13 23% 8760 115949 20315 71%
c
c  seconds   switched   rate       size/glue tier1     binary          remaining
c         MB  reductions conflicts       size  tier2      irredundant
c           level restarts    redundant    glue    trail          variables
c
c -  1.29 25 119 0 3 681 23 3415 2000 2.0 13 7 4 13 21% 8770 115949 20315 71%
c -  1.57 25 120 0 4 1021 22 5148 3074 2.0 14 7 4 13 21% 8794 115949 20315 71%
c -  1.88 25 116 0 5 1287 21 7148 4260 2.1 15 7 4 13 21% 8815 115949 20315 71%
c u  1.99 25 118 0 5 1332 20 7716 4470 2.1 15 7 4 13 21% 8842 115949 20315 71%
c v  2.02 25 118 0 5 1332 20 7716 4394 2.1 15 7 4 13 21% 8842 115949 20315 71%
c w  2.03 25 118 0 5 1332 20 7716 4393 2.1 15 7 4 13 21% 8842 115949 20315 71%
c =  2.16 25 118 0 5 1332 20 7716 4393 2.1 15 7 4 13 21% 10578 115905 19446 68%
c d  2.17 25 118 0 5 1332 20 7716 4381 2.1 15 7 4 13 21% 8842 115905 19446 68%
c t  2.19 25 118 0 5 1332 20 7716 4381 2.1 15 7 4 13 21% 8821 115905 19446 68%
c f  2.22 25 118 0 5 1332 20 7716 4381 2.1 15 7 4 13 21% 8856 115809 19494 69%
c u  2.27 25 118 0 5 1332 20 7716 3766 2.1 15 7 4 13 21% 8890 115809 19494 69%
c v  2.31 25 118 0 5 1332 20 7716 3598 2.1 15 7 4 13 21% 8890 115809 19494 69%
c w  2.33 25 118 0 5 1332 20 7716 3598 2.1 15 7 4 13 21% 8890 115809 19494 69%
c =  2.43 25 118 0 5 1332 20 7716 3598 2.1 15 7 4 13 21% 10638 115687 18610 65%
c d  2.44 25 118 0 5 1332 20 7716 3595 2.1 15 7 4 13 21% 8890 115687 18610 65%
c t  2.46 25 118 0 5 1332 20 7716 3595 2.1 15 7 4 13 21% 8838 115687 18610 65%
c f  2.49 25 118 0 5 1332 20 7716 3595 2.1 15 7 4 13 21% 8898 115539 18684 66%
c -  2.65 25 120 0 6 1403 19 9384 4291 2.1 14 7 3 13 22% 8909 115535 18684 66%
c o  2.72 25 119 0 6 1460 18 10018 4910 2.1 14 7 3 13 22% 8914 115535 18684 66%
c -  2.93 25 115 0 7 1613 17 11833 5646 2.1 15 7 3 12 21% 8923 115535 18684 66%
c
c  seconds   switched    rate        size/glue tier1     binary          remaining
c         MB  reductions   conflicts       size  tier2      irredundant
c           level  restarts     redundant    glue    trail          variables
c
c s  3.05 25 114 0 7 1672 17 12521 6304 2.1 15 7 3 12 21% 8928 103288 18684 66%
c e  3.16 25 114 0 7 1672 17 12521 6304 2.1 15 7 3 12 21% 8662 103491 18497 65%
c s  3.17 25 114 0 7 1672 17 12521 6304 2.1 15 7 3 12 21% 8663 103461 18497 65%
c e  3.18 25 114 0 7 1672 17 12521 6304 2.1 15 7 3 12 21% 8646 103454 18477 65%
c ^  3.18 25 114 0 7 1672 17 12521 6304 2.1 15 7 3 12 21% 8646 103454 18477 65%
c -  3.34 25 119 0 8 1748 16 14479 6911 2.1 15 7 3 11 22% 8664 103454 18477 65%
c u  3.55 25 117 0 8 1844 16 15805 7559 2.1 15 7 3 11 22% 8726 103454 18477 65%
c v  3.59 25 117 0 8 1844 16 15805 7396 2.1 15 7 3 11 22% 8727 103454 18477 65%
c w  3.61 25 117 0 8 1844 16 15805 7395 2.1 15 7 3 11 22% 8727 103454 18477 65%
c =  3.71 25 117 0 8 1844 16 15805 7395 2.1 15 7 3 11 22% 10445 103390 17614 62%
c d  3.72 25 117 0 8 1844 16 15805 7392 2.1 15 7 3 11 22% 8731 103390 17614 62%
c t  3.74 25 117 0 8 1844 16 15805 7392 2.1 15 7 3 11 22% 8713 103390 17614 62%
c f  3.76 25 117 0 8 1844 16 15805 7392 2.1 15 7 3 11 22% 8725 103330 17629 62%
c u  3.81 25 117 0 8 1844 16 15805 7115 2.1 15 7 3 11 22% 8727 103330 17629 62%
c v  3.84 25 117 0 8 1844 16 15805 7052 2.1 15 7 3 11 22% 8727 103330 17629 62%
c w  3.85 25 117 0 8 1844 16 15805 7052 2.1 15 7 3 11 22% 8727 103330 17629 62%
c x  3.87 25 117 0 8 1844 16 15805 7052 2.1 15 7 3 11 22% 8727 102859 17629 62%
c =  3.97 25 117 0 8 1844 16 15805 7052 2.1 15 7 3 11 22% 10517 102817 16730 59%
c d  3.98 25 117 0 8 1844 16 15805 7052 2.1 15 7 3 11 22% 8727 102817 16730 59%
c t  4.00 25 117 0 8 1844 16 15805 7052 2.1 15 7 3 11 22% 8718 102817 16730 59%
c
c  seconds   switched    rate        size/glue tier1     binary          remaining
c         MB  reductions   conflicts       size  tier2      irredundant
c           level  restarts     redundant    glue    trail          variables
c
c -  4.16 25 115 0 9 1895 15 17307 7008 2.1 15 7 2 11 22% 8706 102817 16730 59%
c o  4.46 25 116 0 9 2083 15 20061 9694 2.1 14 7 2 11 22% 8729 102817 16730 59%
c -  4.51 25 115 0 10 2122 15 20307 8322 2.1 15 7 2 11 22% 8738 102817 16730 59%
c -  4.88 25 112 0 11 2473 15 23469 9554 2.1 15 7 2 10 22% 8769 102817 16730 59%
c s  5.05 25 112 0 11 2598 15 25026 11040 2.1 15 7 2 10 22% 8778 91127 16730 59%
c e  5.14 25 112 0 11 2598 15 25026 11040 2.1 15 7 2 10 22% 8664 91221 16679 59%
c s  5.14 25 112 0 11 2598 15 25026 11040 2.1 15 7 2 10 22% 8665 91215 16679 59%
c e  5.15 25 112 0 11 2598 15 25026 11040 2.1 15 7 2 10 22% 8664 91214 16678 59%
c ^  5.15 25 112 0 11 2598 15 25026 11040 2.1 15 7 2 10 22% 8664 91214 16678 59%
c -  5.30 25 111 0 12 2684 14 26785 10796 2.1 15 7 2 10 22% 8668 91214 16678 59%
c u  5.38 25 111 0 12 2691 14 26935 9928 2.1 15 7 2 10 22% 8715 91214 16678 59%
c v  5.42 25 111 0 12 2691 14 26935 9386 2.1 15 7 2 10 22% 8715 91214 16678 59%
c w  5.43 25 111 0 12 2691 14 26935 9386 2.1 15 7 2 10 22% 8715 91214 16678 59%
c =  5.57 25 111 0 12 2691 14 26935 9386 2.1 15 7 2 10 22% 11325 91196 15372 54%
c d  5.58 25 111 0 12 2691 14 26935 9367 2.1 15 7 2 10 22% 8717 91196 15372 54%
c t  5.60 25 111 0 12 2691 14 26935 9367 2.1 15 7 2 10 22% 8707 91196 15372 54%
c f  5.63 25 111 0 12 2691 14 26935 9367 2.1 15 7 2 10 22% 8718 91144 15380 54%
c u  5.68 25 111 0 12 2691 14 26935 8854 2.1 15 7 2 10 22% 8727 91144 15380 54%
c v  5.72 25 111 0 12 2691 14 26935 8760 2.1 15 7 2 10 22% 8727 91144 15380 54%
c w  5.73 25 111 0 12 2691 14 26935 8758 2.1 15 7 2 10 22% 8727 91144 15380 54%
c
c  seconds   switched     rate        size/glue tier1     binary         remaining
c         MB   reductions   conflicts       size  tier2      irredundant
c           level   restarts     redundant    glue    trail         variables
c
c x  5.76 25 111 0 12 2691 14 26935 8758 2.1 15 7 2 10 22% 8727 86496 15380 54%
c =  5.91 25 111 0 12 2691 14 26935 8758 2.1 15 7 2 10 22% 11279 86414 14096 50%
c d  5.91 25 111 0 12 2691 14 26935 8755 2.1 15 7 2 10 22% 8729 86414 14096 50%
c t  5.93 25 111 0 12 2691 14 26935 8755 2.1 15 7 2 10 22% 8715 86414 14096 50%
c f  5.96 25 111 0 12 2691 14 26935 8755 2.1 15 7 2 10 22% 8705 86404 14098 50%
c -  6.21 25 110 0 13 2938 14 30252 10121 2.1 14 7 2 10 22% 8721 86404 14098 50%
c -  6.42 25 107 0 14 3205 13 33857 11639 2.1 14 7 2 9 23% 8742 86404 14098 50%
c -  6.63 25 105 0 15 3548 13 37598 12960 2.1 15 7 2 9 23% 8760 86404 14098 50%
c o  6.79 25 104 0 15 3842 13 40094 15372 2.1 15 7 2 9 22% 8783 86404 14098 50%
c c  6.93 25 104 0 15 3998 13 41263 16496 2.1 15 7 2 9 23% 8839 86208 14073 50%
c d  6.93 25 104 0 15 3998 13 41263 16467 2.1 15 7 2 9 23% 8789 86208 14073 50%
c u  6.96 25 104 0 15 3998 13 41263 16039 2.1 15 7 2 9 23% 8811 86208 14073 50%
c v  6.99 25 104 0 15 3998 13 41263 15642 2.1 15 7 2 9 23% 8816 86208 14073 50%
c w  7.00 25 104 0 15 3998 13 41263 15642 2.1 15 7 2 9 23% 8816 86208 14073 50%
c x  7.03 25 104 0 15 3998 13 41263 15642 2.1 15 7 2 9 23% 8816 83527 14073 50%
c =  7.14 25 104 0 15 3998 13 41263 15642 2.1 15 7 2 9 23% 11754 83511 12603 44%
c d  7.15 25 104 0 15 3998 13 41263 15454 2.1 15 7 2 9 23% 8815 83507 12603 44%
c f  7.18 25 104 0 15 3998 13 41263 15454 2.1 15 7 2 9 23% 8827 83477 12609 44%
c u  7.21 25 104 0 15 3998 13 41263 14828 2.1 15 7 2 9 23% 8868 83477 12609 44%
c v  7.24 25 104 0 15 3998 13 41263 14696 2.1 15 7 2 9 23% 8868 83477 12609 44%
c
c  seconds   switched     rate         size/glue tier1    binary         remaining
c         MB   reductions   conflicts        size  tier2     irredundant
c           level   restarts      redundant    glue   trail         variables
c
c w  7.25 25 104 0 15 3998 13 41263 14694 2.1 15 7 2 9 23% 8868 83477 12609 44%
c x  7.27 25 104 0 15 3998 13 41263 14694 2.1 15 7 2 9 23% 8868 78720 12609 44%
c =  7.31 25 104 0 15 3998 13 41263 14694 2.1 15 7 2 9 23% 9608 78530 12204 43%
c }  7.31 25 104 0 15 3998 13 41263 14694 2.1 15 7 2 9 23% 9608 78530 12574 44%
c 0  7.31 25 104 0 15 3998 13 41263 14694 2.1 15 7 2 9 23% 9608 78530 12574 44%
c
c ---- [ result ] ------------------------------------------------------------
c
s UNSATISFIABLE
c
c ---- [ profiling ] ---------------------------------------------------------
c
c           4.07   55.65 %  search
c           4.07   55.65 %  focused
c           2.81   38.46 %  simplify
c           2.72   37.18 %  probe
c           0.94   12.84 %  sweep
c           0.87   11.97 %  vivify
c           0.36    4.98 %  factor
c           0.35    4.78 %  preprocess
c           0.29    3.96 %  eliminate
c           0.25    3.45 %  substitute
c           0.20    2.69 %  congruence
c           0.14    1.97 %  fastel
c           0.09    1.17 %  reduce
c           0.06    0.81 %  lucky
c           0.06    0.78 %  subsume
c           0.05    0.75 %  transitive
c           0.04    0.50 %  backbone
c           0.02    0.29 %  parse
c =============================================
c           7.31  100.00 %  total
c
c ---- [ statistics ] --------------------------------------------------------
c
c chronological:                          363                1 %  conflicts
c conflicts:                            41263             5644.95 per second
c congruent:                               25                0 %  variables
c decisions:                           551573               13.37 per conflict
c eliminated:                            8337               29 %  variables
c factored:                               176                1 %  variables
c fast_eliminated:                       8078               97 %  eliminated
c fast_strengthened:                        1                1 %  per strengthened
c fast_subsumed:                            2                0 %  per subsumed
c propagations:                      29828356          4080643    per second
c reductions:                              15             2751    interval
c reordered:                                3            13754    interval
c restarts:                              3998               10    interval
c strengthened:                           173                0 %  checks
c substituted:                           7622               27 %  variables
c subsumed:                             23973                2 %  checks
c switched:                                 0                0    interval
c vivified:                             24082               26 %  checks
c
c ---- [ glue usage ] --------------------------------------------------------
c
c focused glue 2   used 15974 clauses 28.22% accumulated 62.57% tier1
c focused glue 3   used  5388 clauses  9.52% accumulated 72.09%
c focused glue 4-6 used  7572 clauses 13.38% accumulated 85.47%
c focused glue 7   used  1436 clauses  2.54% accumulated 88.00%
c focused glue 8   used  1210 clauses  2.14% accumulated 90.14% tier2
c
c ---- [ resources ] ---------------------------------------------------------
c
c maximum-resident-set-size:         26288128 bytes         25 MB
c process-time:                             7s               7.31 seconds
c
c ---- [ shutting down ] -----------------------------------------------------
c
c exit 20
